(set-info :smt-lib-version 2.6)
(set-option :produce-assignments true)
(set-logic BPA)
(set-info :source | Kaya Guvendi and Ethan Bogle |)
(set-info :category "crafted")
(set-info :status unsat)
(declare-const p0 Pointer)
(declare-const p1 Pointer)
(declare-const p2 Pointer)
(assert (<= (- (+ (Base (Block p0)) (Offset p0)) (+ (Base (Block p1)) (Offset p1))) -8))
(assert (<= (- (+ (Base (Block p0)) (Offset p0)) (+ (Base (Block p2)) (Offset p2))) -8))
(assert (<= (- (+ (Base (Block p1)) (Offset p1)) (+ (Base (Block p2)) (Offset p2))) -8))
(assert (<= (+ (+ (Base (Block p2)) (Offset p2)) 7) 23))
(check-sat)
(exit)